c K to QBF translator. (C)Rice University.
c From input file 5-7.lwb
p cnf 400 1009
e 400 1 399 0
a 94 0
e 116 398 7 6 5 4 3 2 119 397 0
a 95 96 0
e 122 396 17 16 15 14 13 12 11 10 9 8 125 131 134 137 139 140 395 0
a 97 98 0
e 144 394 27 26 25 24 23 22 21 20 19 18 147 153 156 159 162 165 167 169 170 393 0
a 99 100 0
e 174 392 35 34 33 32 31 30 29 28 177 182 185 188 191 194 196 198 199 391 0
a 101 102 0
e 202 390 42 41 40 39 38 37 36 205 210 213 216 218 220 221 389 0
a 103 104 0
e 224 388 52 51 50 49 48 47 46 45 44 43 227 233 236 239 241 242 387 0
a 105 106 0
e 246 386 60 59 58 57 56 55 54 53 249 254 257 260 263 266 268 270 271 385 0
a 107 108 0
e 274 384 72 71 70 69 68 67 66 65 64 63 62 61 277 284 287 290 293 295 296 383 0
a 109 110 0
e 300 382 81 80 79 78 77 76 75 74 73 303 306 309 312 315 318 321 324 327 329 330 381 0
a 111 112 0
e 333 380 87 86 85 84 83 82 336 340 343 346 349 352 354 355 379 0
a 113 114 0
e 358 378 91 90 89 88 361 364 367 369 370 377 0
a 115 0
e 371 376 93 92 373 374 375 372 368 365 366 363 362 360 359 356 357 353 350 351 348 347 345 344 342 341 338 339 337 335 334 331 332 328 325 326 322 323 320 319 317 316 314 313 311 310 308 307 305 304 302 301 297 298 299 294 291 292 289 288 286 285 279 283 280 281 282 278 276 275 272 273 269 267 264 265 262 261 259 258 256 255 251 253 252 250 248 247 243 244 245 240 237 238 235 234 229 232 230 231 228 226 225 222 223 219 217 215 214 212 211 207 209 208 206 204 203 200 201 197 195 192 193 190 189 187 186 184 183 179 181 180 178 176 175 171 172 173 168 166 163 164 161 160 158 157 155 154 149 152 150 151 148 146 145 141 142 143 138 135 136 133 132 127 130 128 129 126 124 123 120 121 118 117 0
400  0 
400 -399 -1  0 
399 -400  0 
1 -400  0 
-399 116 398  0 
-116 399  0 
-398 399  0 
-116 -94 -1  0 
94 116  0 
1 116  0 
398 -119 -397  0 
119 -398  0 
397 -398  0 
-119 -94 118  0 
94 119  0 
-118 119  0 
118 -5 -2 -117  0 
5 -118  0 
2 -118  0 
117 -118  0 
-117 3 4 7 6  0 
-3 117  0 
-4 117  0 
-7 117  0 
-6 117  0 
-397 122 396  0 
-122 397  0 
-396 397  0 
122 -120 -121  0 
120 -122  0 
121 -122  0 
-120 -3 95 -96  0 
3 120  0 
-95 120  0 
96 120  0 
-121 -2 -95 -96  0 
2 121  0 
95 121  0 
96 121  0 
396 -125 -131 -134 -137 -139 -140 -395  0 
125 -396  0 
131 -396  0 
134 -396  0 
137 -396  0 
139 -396  0 
140 -396  0 
395 -396  0 
-125 124 17  0 
-124 125  0 
-17 125  0 
-124 -6 123  0 
6 124  0 
-123 124  0 
123 3 2  0 
-3 -123  0 
-2 -123  0 
-131 127 130  0 
-127 131  0 
-130 131  0 
-127 -5 126  0 
5 127  0 
-126 127  0 
126 3 2  0 
-3 -126  0 
-2 -126  0 
130 -14 -128 -129  0 
14 -130  0 
128 -130  0 
129 -130  0 
-128 9 12  0 
-9 128  0 
-12 128  0 
-129 10 11 17 15  0 
-10 129  0 
-11 129  0 
-17 129  0 
-15 129  0 
-134 133 9  0 
-133 134  0 
-9 134  0 
-133 -4 132  0 
4 133  0 
-132 133  0 
132 3 2  0 
-3 -132  0 
-2 -132  0 
-137 135 136  0 
-135 137  0 
-136 137  0 
-135 95 -96  0 
-95 135  0 
96 135  0 
136 -13 -16  0 
13 -136  0 
16 -136  0 
-139 138 8  0 
-138 139  0 
-8 139  0 
-138 -95 -96  0 
95 138  0 
96 138  0 
-140 -16 -17  0 
16 140  0 
17 140  0 
-395 144 394  0 
-144 395  0 
-394 395  0 
144 -141 -142 -143  0 
141 -144  0 
142 -144  0 
143 -144  0 
-141 -10 -97 98  0 
10 141  0 
97 141  0 
-98 141  0 
-142 -9 97 -98  0 
9 142  0 
-97 142  0 
98 142  0 
-143 -8 -97 -98  0 
8 143  0 
97 143  0 
98 143  0 
394 -147 -153 -156 -159 -162 -165 -167 -169 -170 -393  0 
147 -394  0 
153 -394  0 
156 -394  0 
159 -394  0 
162 -394  0 
165 -394  0 
167 -394  0 
169 -394  0 
170 -394  0 
393 -394  0 
-147 146 27  0 
-146 147  0 
-27 147  0 
-146 -15 145  0 
15 146  0 
-145 146  0 
145 10 9 8  0 
-10 -145  0 
-9 -145  0 
-8 -145  0 
-153 149 152  0 
-149 153  0 
-152 153  0 
-149 -14 148  0 
14 149  0 
-148 149  0 
148 10 9 8  0 
-10 -148  0 
-9 -148  0 
-8 -148  0 
152 -24 -150 -151  0 
24 -152  0 
150 -152  0 
151 -152  0 
-150 19 22  0 
-19 150  0 
-22 150  0 
-151 20 21 27 25  0 
-20 151  0 
-21 151  0 
-27 151  0 
-25 151  0 
-156 155 26 25  0 
-155 156  0 
-26 156  0 
-25 156  0 
-155 -13 154  0 
13 155  0 
-154 155  0 
154 10 9 8  0 
-10 -154  0 
-9 -154  0 
-8 -154  0 
-159 158 25  0 
-158 159  0 
-25 159  0 
-158 -12 157  0 
12 158  0 
-157 158  0 
157 10 9 8  0 
-10 -157  0 
-9 -157  0 
-8 -157  0 
-162 161 19  0 
-161 162  0 
-19 162  0 
-161 -11 160  0 
11 161  0 
-160 161  0 
160 10 9 8  0 
-10 -160  0 
-9 -160  0 
-8 -160  0 
-165 163 164  0 
-163 165  0 
-164 165  0 
-163 -97 98  0 
97 163  0 
-98 163  0 
164 -23 -26  0 
23 -164  0 
26 -164  0 
-167 166 26  0 
-166 167  0 
-26 167  0 
-166 97 -98  0 
-97 166  0 
98 166  0 
-169 168 18  0 
-168 169  0 
-18 169  0 
-168 -97 -98  0 
97 168  0 
98 168  0 
-170 -26 -27  0 
26 170  0 
27 170  0 
-393 174 392  0 
-174 393  0 
-392 393  0 
174 -171 -172 -173  0 
171 -174  0 
172 -174  0 
173 -174  0 
-171 -20 -99 100  0 
20 171  0 
99 171  0 
-100 171  0 
-172 -19 99 -100  0 
19 172  0 
-99 172  0 
100 172  0 
-173 -18 -99 -100  0 
18 173  0 
99 173  0 
100 173  0 
392 -177 -182 -185 -188 -191 -194 -196 -198 -199 -391  0 
177 -392  0 
182 -392  0 
185 -392  0 
188 -392  0 
191 -392  0 
194 -392  0 
196 -392  0 
198 -392  0 
199 -392  0 
391 -392  0 
-177 176 35  0 
-176 177  0 
-35 177  0 
-176 -25 175  0 
25 176  0 
-175 176  0 
175 20 19 18  0 
-20 -175  0 
-19 -175  0 
-18 -175  0 
-182 179 181  0 
-179 182  0 
-181 182  0 
-179 -24 178  0 
24 179  0 
-178 179  0 
178 20 19 18  0 
-20 -178  0 
-19 -178  0 
-18 -178  0 
181 -32 -180  0 
32 -181  0 
180 -181  0 
-180 29 30  0 
-29 180  0 
-30 180  0 
-185 184 34 33  0 
-184 185  0 
-34 185  0 
-33 185  0 
-184 -23 183  0 
23 184  0 
-183 184  0 
183 20 19 18  0 
-20 -183  0 
-19 -183  0 
-18 -183  0 
-188 187 33  0 
-187 188  0 
-33 188  0 
-187 -22 186  0 
22 187  0 
-186 187  0 
186 20 19 18  0 
-20 -186  0 
-19 -186  0 
-18 -186  0 
-191 190 29  0 
-190 191  0 
-29 191  0 
-190 -21 189  0 
21 190  0 
-189 190  0 
189 20 19 18  0 
-20 -189  0 
-19 -189  0 
-18 -189  0 
-194 192 193  0 
-192 194  0 
-193 194  0 
-192 -99 100  0 
99 192  0 
-100 192  0 
193 -31 -34  0 
31 -193  0 
34 -193  0 
-196 195 34  0 
-195 196  0 
-34 196  0 
-195 99 -100  0 
-99 195  0 
100 195  0 
-198 197 28  0 
-197 198  0 
-28 198  0 
-197 -99 -100  0 
99 197  0 
100 197  0 
-199 -34 -35  0 
34 199  0 
35 199  0 
-391 202 390  0 
-202 391  0 
-390 391  0 
202 -200 -201  0 
200 -202  0 
201 -202  0 
-200 -29 101 -102  0 
29 200  0 
-101 200  0 
102 200  0 
-201 -28 -101 -102  0 
28 201  0 
101 201  0 
102 201  0 
390 -205 -210 -213 -216 -218 -220 -221 -389  0 
205 -390  0 
210 -390  0 
213 -390  0 
216 -390  0 
218 -390  0 
220 -390  0 
221 -390  0 
389 -390  0 
-205 204 42  0 
-204 205  0 
-42 205  0 
-204 -33 203  0 
33 204  0 
-203 204  0 
203 29 28  0 
-29 -203  0 
-28 -203  0 
-210 207 209  0 
-207 210  0 
-209 210  0 
-207 -32 206  0 
32 207  0 
-206 207  0 
206 29 28  0 
-29 -206  0 
-28 -206  0 
209 -39 -208  0 
39 -209  0 
208 -209  0 
-208 37 38 42 40  0 
-37 208  0 
-38 208  0 
-42 208  0 
-40 208  0 
-213 212 41 40  0 
-212 213  0 
-41 213  0 
-40 213  0 
-212 -31 211  0 
31 212  0 
-211 212  0 
211 29 28  0 
-29 -211  0 
-28 -211  0 
-216 215 40  0 
-215 216  0 
-40 216  0 
-215 -30 214  0 
30 215  0 
-214 215  0 
214 29 28  0 
-29 -214  0 
-28 -214  0 
-218 217 41  0 
-217 218  0 
-41 218  0 
-217 101 -102  0 
-101 217  0 
102 217  0 
-220 219 36  0 
-219 220  0 
-36 220  0 
-219 -101 -102  0 
101 219  0 
102 219  0 
-221 -41 -42  0 
41 221  0 
42 221  0 
-389 224 388  0 
-224 389  0 
-388 389  0 
224 -222 -223  0 
222 -224  0 
223 -224  0 
-222 -37 103 -104  0 
37 222  0 
-103 222  0 
104 222  0 
-223 -36 -103 -104  0 
36 223  0 
103 223  0 
104 223  0 
388 -227 -233 -236 -239 -241 -242 -387  0 
227 -388  0 
233 -388  0 
236 -388  0 
239 -388  0 
241 -388  0 
242 -388  0 
387 -388  0 
-227 226 52  0 
-226 227  0 
-52 227  0 
-226 -40 225  0 
40 226  0 
-225 226  0 
225 37 36  0 
-37 -225  0 
-36 -225  0 
-233 229 232  0 
-229 233  0 
-232 233  0 
-229 -39 228  0 
39 229  0 
-228 229  0 
228 37 36  0 
-37 -228  0 
-36 -228  0 
232 -49 -230 -231  0 
49 -232  0 
230 -232  0 
231 -232  0 
-230 44 47  0 
-44 230  0 
-47 230  0 
-231 45 46 52 50  0 
-45 231  0 
-46 231  0 
-52 231  0 
-50 231  0 
-236 235 44  0 
-235 236  0 
-44 236  0 
-235 -38 234  0 
38 235  0 
-234 235  0 
234 37 36  0 
-37 -234  0 
-36 -234  0 
-239 237 238  0 
-237 239  0 
-238 239  0 
-237 103 -104  0 
-103 237  0 
104 237  0 
238 -48 -51  0 
48 -238  0 
51 -238  0 
-241 240 43  0 
-240 241  0 
-43 241  0 
-240 -103 -104  0 
103 240  0 
104 240  0 
-242 -51 -52  0 
51 242  0 
52 242  0 
-387 246 386  0 
-246 387  0 
-386 387  0 
246 -243 -244 -245  0 
243 -246  0 
244 -246  0 
245 -246  0 
-243 -45 -105 106  0 
45 243  0 
105 243  0 
-106 243  0 
-244 -44 105 -106  0 
44 244  0 
-105 244  0 
106 244  0 
-245 -43 -105 -106  0 
43 245  0 
105 245  0 
106 245  0 
386 -249 -254 -257 -260 -263 -266 -268 -270 -271 -385  0 
249 -386  0 
254 -386  0 
257 -386  0 
260 -386  0 
263 -386  0 
266 -386  0 
268 -386  0 
270 -386  0 
271 -386  0 
385 -386  0 
-249 248 60  0 
-248 249  0 
-60 249  0 
-248 -50 247  0 
50 248  0 
-247 248  0 
247 45 44 43  0 
-45 -247  0 
-44 -247  0 
-43 -247  0 
-254 251 253  0 
-251 254  0 
-253 254  0 
-251 -49 250  0 
49 251  0 
-250 251  0 
250 45 44 43  0 
-45 -250  0 
-44 -250  0 
-43 -250  0 
253 -57 -252  0 
57 -253  0 
252 -253  0 
-252 53 55  0 
-53 252  0 
-55 252  0 
-257 256 59 58  0 
-256 257  0 
-59 257  0 
-58 257  0 
-256 -48 255  0 
48 256  0 
-255 256  0 
255 45 44 43  0 
-45 -255  0 
-44 -255  0 
-43 -255  0 
-260 259 58  0 
-259 260  0 
-58 260  0 
-259 -47 258  0 
47 259  0 
-258 259  0 
258 45 44 43  0 
-45 -258  0 
-44 -258  0 
-43 -258  0 
-263 262 53  0 
-262 263  0 
-53 263  0 
-262 -46 261  0 
46 262  0 
-261 262  0 
261 45 44 43  0 
-45 -261  0 
-44 -261  0 
-43 -261  0 
-266 264 265  0 
-264 266  0 
-265 266  0 
-264 -105 106  0 
105 264  0 
-106 264  0 
265 -56 -59  0 
56 -265  0 
59 -265  0 
-268 267 59  0 
-267 268  0 
-59 268  0 
-267 105 -106  0 
-105 267  0 
106 267  0 
-270 269 54  0 
-269 270  0 
-54 270  0 
-269 -105 -106  0 
105 269  0 
106 269  0 
-271 -59 -60  0 
59 271  0 
60 271  0 
-385 274 384  0 
-274 385  0 
-384 385  0 
274 -272 -273  0 
272 -274  0 
273 -274  0 
-272 -54 107 -108  0 
54 272  0 
-107 272  0 
108 272  0 
-273 -53 -107 -108  0 
53 273  0 
107 273  0 
108 273  0 
384 -277 -284 -287 -290 -293 -295 -296 -383  0 
277 -384  0 
284 -384  0 
287 -384  0 
290 -384  0 
293 -384  0 
295 -384  0 
296 -384  0 
383 -384  0 
-277 276 72  0 
-276 277  0 
-72 277  0 
-276 -58 275  0 
58 276  0 
-275 276  0 
275 54 53  0 
-54 -275  0 
-53 -275  0 
-284 279 283  0 
-279 284  0 
-283 284  0 
-279 -57 278  0 
57 279  0 
-278 279  0 
278 54 53  0 
-54 -278  0 
-53 -278  0 
283 -67 -280 -281 -282  0 
67 -283  0 
280 -283  0 
281 -283  0 
282 -283  0 
-280 63 65 69 71 70  0 
-63 280  0 
-65 280  0 
-69 280  0 
-71 280  0 
-70 280  0 
-281 62 64 72 70  0 
-62 281  0 
-64 281  0 
-72 281  0 
-70 281  0 
-282 62 66  0 
-62 282  0 
-66 282  0 
-287 286 71 70  0 
-286 287  0 
-71 287  0 
-70 287  0 
-286 -56 285  0 
56 286  0 
-285 286  0 
285 54 53  0 
-54 -285  0 
-53 -285  0 
-290 289 70  0 
-289 290  0 
-70 290  0 
-289 -55 288  0 
55 289  0 
-288 289  0 
288 54 53  0 
-54 -288  0 
-53 -288  0 
-293 291 292  0 
-291 293  0 
-292 293  0 
-291 107 -108  0 
-107 291  0 
108 291  0 
292 -68 -61 -71  0 
68 -292  0 
61 -292  0 
71 -292  0 
-295 294 71  0 
-294 295  0 
-71 295  0 
-294 -107 -108  0 
107 294  0 
108 294  0 
-296 -71 -72  0 
71 296  0 
72 296  0 
-383 300 382  0 
-300 383  0 
-382 383  0 
300 -297 -298 -299  0 
297 -300  0 
298 -300  0 
299 -300  0 
-297 -63 -109 110  0 
63 297  0 
109 297  0 
-110 297  0 
-298 -62 109 -110  0 
62 298  0 
-109 298  0 
110 298  0 
-299 -61 -109 -110  0 
61 299  0 
109 299  0 
110 299  0 
382 -303 -306 -309 -312 -315 -318 -321 -324 -327 -329 -330 -381  0 
303 -382  0 
306 -382  0 
309 -382  0 
312 -382  0 
315 -382  0 
318 -382  0 
321 -382  0 
324 -382  0 
327 -382  0 
329 -382  0 
330 -382  0 
381 -382  0 
-303 302 81  0 
-302 303  0 
-81 303  0 
-302 -70 301  0 
70 302  0 
-301 302  0 
301 63 62 61  0 
-63 -301  0 
-62 -301  0 
-61 -301  0 
-306 305 80 79  0 
-305 306  0 
-80 306  0 
-79 306  0 
-305 -69 304  0 
69 305  0 
-304 305  0 
304 63 62 61  0 
-63 -304  0 
-62 -304  0 
-61 -304  0 
-309 308 74 81  0 
-308 309  0 
-74 309  0 
-81 309  0 
-308 -68 307  0 
68 308  0 
-307 308  0 
307 63 62 61  0 
-63 -307  0 
-62 -307  0 
-61 -307  0 
-312 311 73 75  0 
-311 312  0 
-73 312  0 
-75 312  0 
-311 -67 310  0 
67 311  0 
-310 311  0 
310 63 62 61  0 
-63 -310  0 
-62 -310  0 
-61 -310  0 
-315 314 76  0 
-314 315  0 
-76 315  0 
-314 -66 313  0 
66 314  0 
-313 314  0 
313 63 62 61  0 
-63 -313  0 
-62 -313  0 
-61 -313  0 
-318 317 74  0 
-317 318  0 
-74 318  0 
-317 -65 316  0 
65 317  0 
-316 317  0 
316 63 62 61  0 
-63 -316  0 
-62 -316  0 
-61 -316  0 
-321 320 73  0 
-320 321  0 
-73 321  0 
-320 -64 319  0 
64 320  0 
-319 320  0 
319 63 62 61  0 
-63 -319  0 
-62 -319  0 
-61 -319  0 
-324 322 323  0 
-322 324  0 
-323 324  0 
-322 -109 110  0 
109 322  0 
-110 322  0 
323 -78 -81 -73  0 
78 -323  0 
81 -323  0 
73 -323  0 
-327 325 326  0 
-325 327  0 
-326 327  0 
-325 109 -110  0 
-109 325  0 
110 325  0 
326 -77 -80  0 
77 -326  0 
80 -326  0 
-329 328 79  0 
-328 329  0 
-79 329  0 
-328 -109 -110  0 
109 328  0 
110 328  0 
-330 -80 -81  0 
80 330  0 
81 330  0 
-381 333 380  0 
-333 381  0 
-380 381  0 
333 -331 -332  0 
331 -333  0 
332 -333  0 
-331 -74 111 -112  0 
74 331  0 
-111 331  0 
112 331  0 
-332 -73 -111 -112  0 
73 332  0 
111 332  0 
112 332  0 
380 -336 -340 -343 -346 -349 -352 -354 -355 -379  0 
336 -380  0 
340 -380  0 
343 -380  0 
346 -380  0 
349 -380  0 
352 -380  0 
354 -380  0 
355 -380  0 
379 -380  0 
-336 335 87  0 
-335 336  0 
-87 336  0 
-335 -79 334  0 
79 335  0 
-334 335  0 
334 74 73  0 
-74 -334  0 
-73 -334  0 
-340 338 339 84  0 
-338 340  0 
-339 340  0 
-84 340  0 
-338 -78 337  0 
78 338  0 
-337 338  0 
337 74 73  0 
-74 -337  0 
-73 -337  0 
339 -87 -82  0 
87 -339  0 
82 -339  0 
-343 342 86 85  0 
-342 343  0 
-86 343  0 
-85 343  0 
-342 -77 341  0 
77 342  0 
-341 342  0 
341 74 73  0 
-74 -341  0 
-73 -341  0 
-346 345 83 87  0 
-345 346  0 
-83 346  0 
-87 346  0 
-345 -76 344  0 
76 345  0 
-344 345  0 
344 74 73  0 
-74 -344  0 
-73 -344  0 
-349 348 85  0 
-348 349  0 
-85 349  0 
-348 -75 347  0 
75 348  0 
-347 348  0 
347 74 73  0 
-74 -347  0 
-73 -347  0 
-352 350 351  0 
-350 352  0 
-351 352  0 
-350 111 -112  0 
-111 350  0 
112 350  0 
351 -87 -82  0 
87 -351  0 
82 -351  0 
-354 353 86  0 
-353 354  0 
-86 354  0 
-353 -111 -112  0 
111 353  0 
112 353  0 
-355 -86 -87  0 
86 355  0 
87 355  0 
-379 358 378  0 
-358 379  0 
-378 379  0 
358 -356 -357  0 
356 -358  0 
357 -358  0 
-356 -83 113 -114  0 
83 356  0 
-113 356  0 
114 356  0 
-357 -82 -113 -114  0 
82 357  0 
113 357  0 
114 357  0 
378 -361 -364 -367 -369 -370 -377  0 
361 -378  0 
364 -378  0 
367 -378  0 
369 -378  0 
370 -378  0 
377 -378  0 
-361 360 91  0 
-360 361  0 
-91 361  0 
-360 -85 359  0 
85 360  0 
-359 360  0 
359 83 82  0 
-83 -359  0 
-82 -359  0 
-364 363 90 89  0 
-363 364  0 
-90 364  0 
-89 364  0 
-363 -84 362  0 
84 363  0 
-362 363  0 
362 83 82  0 
-83 -362  0 
-82 -362  0 
-367 365 366  0 
-365 367  0 
-366 367  0 
-365 113 -114  0 
-113 365  0 
114 365  0 
366 -91 -88  0 
91 -366  0 
88 -366  0 
-369 368 90  0 
-368 369  0 
-90 369  0 
-368 -113 -114  0 
113 368  0 
114 368  0 
-370 -90 -91  0 
90 370  0 
91 370  0 
-377 371 376  0 
-371 377  0 
-376 377  0 
-371 -115 -88  0 
115 371  0 
88 371  0 
376 -373 -374 -375  0 
373 -376  0 
374 -376  0 
375 -376  0 
-373 372 93  0 
-372 373  0 
-93 373  0 
-372 -89 -88  0 
89 372  0 
88 372  0 
-374 -115 92  0 
115 374  0 
-92 374  0 
-375 -92 -93  0 
92 375  0 
93 375  0 
